
 SHELL for Stap90                                                                

 C O N T R O L   I N F O R M A T I O N

      NUMBER OF NODAL POINTS . . . . . . . . . . (NUMNP)  =     9
      NUMBER OF ELEMENT GROUPS . . . . . . . . . (NUMEG)  =     1
      NUMBER OF LOAD CASES . . . . . . . . . . . (NLCASE) =     1
      SOLUTION MODE  . . . . . . . . . . . . . . (MODEX)  =     1
         EQ.0, DATA CHECK
         EQ.1, EXECUTION
    NUMER OF ELEMENT POINTs DEGREE OF FREEDOM.....(NDF)  =    5


 N O D A L   P O I N T   D A T A

  NODE          BOUNDARY                         NODAL POINT
 NUMBER     CONDITION  CODES                     COORDINATES
               X    Y    Z               X            Y            Z
    1          1    1    1    1    1              0.000        0.000        0.000
    2          0    0    0    0    0              1.900        0.000        0.000
    3          0    0    0    0    0              4.000        0.000        0.000
    4          1    1    1    1    1              0.000        0.700        0.000
    5          0    0    0    0    0              2.100        0.400        0.000
    6          0    0    0    0    0              4.000        0.500        0.000
    7          1    1    1    1    1              0.000        1.000        0.000
    8          0    0    0    0    0              2.300        1.000        0.000
    9          0    0    0    0    0              4.000        1.000        0.000


 EQUATION NUMBERS

   NODE         DEGREES OF FREEDOM
  NUMBER
     N             X    Y    Z
     1             0    0    0    0    0
     2             1    2    3    4    5
     3             6    7    8    9   10
     4             0    0    0    0    0
     5            11   12   13   14   15
     6            16   17   18   19   20
     7             0    0    0    0    0
     8            21   22   23   24   25
     9            26   27   28   29   30


 L O A D   C A S E   D A T A

     LOAD CASE NUMBER . . . . . . . =     1
     NUMBER OF CONCENTRATED LOADS . =     1

    NODE       DIRECTION      LOAD
   NUMBER                   MAGNITUDE
      6            3       -0.10000E+02


 E L E M E N T   G R O U P   D A T A


 E L E M E N T   D E F I N I T I O N

 ELEMENT TYPE  . . . . . . . . . . . . .( NPAR(1) ) . . =    7
     EQ.1, QUADR ELEMENTS
     EQ.2, ELEMENTS CURRENTLY
     EQ.6, SHELL ELEMENTS

 NUMBER OF ELEMENTS. . . . . . . . . . .( NPAR(2) ) . . =    4

 M A T E R I A L   D E F I N I T I O N

 NUMBER OF DIFFERENT SETS OF MATERIAL
 AND PROPETIES  . . . .( NPAR(3) ) . . =    1

  SET       YOUNG'S      POISSION     THICKNESS
 NUMBER     MODULUS             RATIO         VALUE
               E              A              ROU
    1     0.30000E+08   0.30000E+00   0.10000E+00


 E L E M E N T   I N F O R M A T I O N

 ELEMENT     NODE     NODE      NODE      NODE      MATERIAL
 NUMBER-N      P1       P2       P3       P4       SET NUMBER
    1          1        2        5        4           1
    2          2        3        6        5           1
    3          4        5        8        7           1
    4          5        6        9        8           1


 TOTAL SYSTEM DATA

     NUMBER OF EQUATIONS . . . . . . . . . . . . . .(NEQ) =    30
     NUMBER OF MATRIX ELEMENTS . . . . . . . . . . .(NWK) =   365
     MAXIMUM HALF BANDWIDTH  . . . . . . . . . . . .(MK ) =    20
     MEAN HALF BANDWIDTH . . . . . . . . . . . . . .(MM ) =    12


 LOAD CASE   1


 D I S P L A C E M E N T S

  NODE           X-DISPLACEMENT    Y-DISPLACEMENT    Z-DISPLACEMENT
   1              0.000000E+00      0.000000E+00      0.000000E+00      0.000000E+00      0.000000E+00
   2              0.000000E+00      0.000000E+00     -0.818006E-01     -0.947521E-01      0.471217E-01
   3              0.000000E+00      0.000000E+00     -0.375650E+00     -0.182044E+00      0.102801E-01
   4              0.000000E+00      0.000000E+00      0.000000E+00      0.000000E+00      0.000000E+00
   5              0.000000E+00      0.000000E+00     -0.110887E+00     -0.102316E+00      0.220373E-01
   6              0.000000E+00      0.000000E+00     -0.390574E+00     -0.193849E+00     -0.106373E-01
   7              0.000000E+00      0.000000E+00      0.000000E+00      0.000000E+00      0.000000E+00
   8              0.000000E+00      0.000000E+00     -0.123961E+00     -0.112463E+00     -0.122349E-01
   9              0.000000E+00      0.000000E+00     -0.397929E+00     -0.206611E+00     -0.366301E-01


 S T R E S S  C A L C U L A T I O N S  F O R  E L E M E N T  G R O U P   1

  ELEMENT     GAUSS POINT     StressXX     StressYY     StressXY
  NUMBER
    1     -0.577  -0.577    -0.137856E+07    -0.751250E+06    -0.152539E-10     0.168217E+01    -0.579843E+02
    1     -0.577   0.577              NaN              NaN              NaN     0.168217E+01    -0.579843E+02
    1      0.577  -0.577              NaN              NaN              NaN     0.168217E+01    -0.579843E+02
    1      0.577   0.577     0.160657E+07     0.174222E+07    -0.152539E-10     0.168217E+01    -0.579843E+02
    2     -0.577  -0.577    -0.498183E+07    -0.387228E+07    -0.813424E+06     0.412802E+02    -0.326123E+03
    2     -0.577   0.577     0.459674E+07     0.694073E+07    -0.123562E+07     0.412802E+02    -0.326123E+03
    2      0.577  -0.577     0.301317E+08     0.143012E+08     0.344868E+07     0.412802E+02    -0.326123E+03
    2      0.577   0.577     0.309989E+07     0.348888E+07    -0.156841E+06     0.412802E+02    -0.326123E+03
    3     -0.577  -0.577    -0.234066E+07    -0.118196E+07     0.485782E+05    -0.137236E+02    -0.578829E+02
    3     -0.577   0.577    -0.316125E+08    -0.549990E+08     0.102936E+07    -0.137236E+02    -0.578829E+02
    3      0.577  -0.577     0.418117E+07     0.141254E+07    -0.234511E+06    -0.137236E+02    -0.578829E+02
    3      0.577   0.577     0.126781E+07     0.141779E+07    -0.105045E+06    -0.137236E+02    -0.578829E+02
    4     -0.577  -0.577    -0.545301E+07    -0.442045E+07    -0.111845E+07     0.664429E+02    -0.429503E+03
    4     -0.577   0.577     0.475289E+07     0.699302E+07    -0.982779E+06     0.664429E+02    -0.429503E+03
    4      0.577  -0.577     0.190263E+08     0.777347E+07     0.245891E+07     0.664429E+02    -0.429503E+03
    4      0.577   0.577     0.305840E+07     0.318430E+07    -0.101861E+06     0.664429E+02    -0.429503E+03


 S O L U T I O N   T I M E   L O G   I N   S E C

     TIME FOR INPUT PHASE  . . . . . . . . . . . . . . =        0.00
     TIME FOR CALCULATION OF STIFFNESS MATRIX  . . . . =        0.00
     TIME FOR FACTORIZATION OF STIFFNESS MATRIX  . . . =        0.00
     TIME FOR LOAD CASE SOLUTIONS  . =        0.00

      T O T A L   S O L U T I O N   T I M E  . . . . . =        0.00
